unsat
( c10
  c101
  c113
  c115
  c129
  c146
  c147
  c149
  c164
  c17
  c183
  c202
  c203
  c222
  c223
  c225
  c229
  c234
  c241
  c253
  c262
  c272
  c283
  c29
  c295
  c308
  c322
  c337
  c353
  c370
  c373
  c38
  c388
  c389
  c390
  c391
  c407
  c426
  c427
  c446
  c447
  c448
  c449
  c451
  c453
  c456
  c457
  c458
  c459
  c460
  c461
  c463
  c464
  c48
  c5
  c59
  c71
  c84
  c98 )
